(written by ASE)

4 atoms
1 atom types

0.0      4.9509999999999996  xlo xhi
0.0      4.9509999999999996  ylo yhi
0.0      4.9509999999999996  zlo zhi

Atoms # atomic

     1   1                       0                       0                       0
     2   1                       0      2.4754999999999998      2.4754999999999998
     3   1      2.4754999999999998                       0      2.4754999999999998
     4   1      2.4754999999999998      2.4754999999999998                       0
